c array.sh: path:     /data/qbf/qbf20/PCNF/axquery_query64_1344n.qdimacs
c array.sh: name:     axquery_query64_1344n
c array.sh: task:     7
c array.sh: host:     c3n04
c array.sh: uname:    Linux c3n04 4.15.0-135-generic #139-Ubuntu SMP Mon Jan 18 17:38:24 UTC 2021 x86_64 x86_64 x86_64 GNU/Linux
c array.sh: start:    Thu Feb 18 09:53:05 CET 2021
c array.sh: noturbo:  1
c array.sh: governor: 32 performance
c array.sh: tmp:      1%
c array.sh: unzipped: /tmp/local-unzipped-18838260-7-axquery_query64_1344n.cnf
*** qbfcert: using tmp directory:
*** qbfcert:   /tmp
trace-size: 2169419608
solving-res 20
proof-size: 42158
cert-size: 2988
cert-header: aag 675 585 0 43 43
merged-header: p cnf 5859 13655
merged-size: 192906
c ---- [ banner ] ------------------------------------------------------------
c
c KISSAT SAT Solver
c Copyright (c) 2019-2020 Armin Biere JKU Linz
c 
c Version 1.0.3 59813addcacc4d6fb880ebdd63685600475aa940
c gcc (Ubuntu 7.5.0-3ubuntu1~18.04) 7.5.0 -W -Wall -O3 -DNEMBEDDED -DNDEBUG -DNMETRICS -DNSTATISTICS
c Sun Feb 14 23:58:54 CET 2021 Linux cluster3 4.15.0-135-generic x86_64
c
c ---- [ parsing ] -----------------------------------------------------------
c
c opened and reading DIMACS file:
c 
c   /tmp/qbfcert_merged_cnf15462.cnf
c 
c parsed 'p cnf 5859 13655' header
c closing input after reading 192906 bytes (188 KB)
c finished parsing after 0.00 seconds
c
c ---- [ solving ] -----------------------------------------------------------
c
c  seconds reductions redundant irredundant
c         MB   restarts    trail     variables
c          level  conflicts   glue       remaining
c
c *  0.00  3 0  0  0   0   0 0% 0 13628 766 13%
c {  0.00  3 0  0  0   0   0 0% 0 13628 766 13%
c i  0.00  3 111  0  0   1   0 75% 0 13628 756 13%
c }  0.00  3 22  0  1   4   1 22% 0 13628 525 9%
c 0  0.00  3 22  0  1   4   1 22% 0 13628 525 9%
c
c ---- [ result ] ------------------------------------------------------------
c
s UNSATISFIABLE
c
c ---- [ profiling ] ---------------------------------------------------------
c
c           0.00   90.65 %  parse
c           0.00    6.47 %  search
c           0.00    4.57 %  focused
c           0.00    0.00 %  simplify
c =============================================
c           0.00  100.00 %  total
c
c ---- [ statistics ] --------------------------------------------------------
c
c conflicts:                                4              787.87 per second
c decisions:                              113               28.25 per conflict
c propagations:                          5355          1054757    per second
c restarts:                                 1                4.00 interval
c
c ---- [ resources ] ---------------------------------------------------------
c
c maximum-resident-set-size:          3252224 bytes          3 MB
c process-time:                             0s               0.00 seconds
c
c ---- [ shutting down ] -----------------------------------------------------
c
c exit 20
*** qbfcert: VALID
c array.sh: end:      Thu Feb 18 09:56:20 CET 2021
